p cnf 14 64
1 -10 11 0
-8 9 11 0
5 9 11 0
1 -5 12 0
5 -9 11 0
3 -11 -13 0
-1 -6 12 0
1 -4 -14 0
3 7 -9 0
-3 12 -13 0
-2 5 14 0
3 11 13 0
-1 12 -14 0
4 -8 -13 0
-1 6 8 0
-3 11 13 0
5 -10 12 0
1 3 12 0
3 6 -8 0
-4 -5 -9 0
4 -8 -14 0
2 4 -14 0
-1 2 -8 0
-5 6 -14 0
-4 7 8 0
8 -12 -13 0
-5 8 -9 0
-2 -3 12 0
2 5 6 0
-2 -6 -12 0
-5 -8 10 0
-7 -10 11 0
3 5 -14 0
-5 -9 -14 0
-3 -9 12 0
-2 3 -5 0
-2 11 -12 0
-3 10 12 0
-5 -9 -11 0
1 -3 -7 0
-8 -10 11 0
-2 -3 -13 0
-3 -6 7 0
5 -8 10 0
3 -11 -14 0
-1 -6 -14 0
-3 -11 13 0
12 -13 14 0
1 3 10 0
1 -5 -6 0
-4 5 -8 0
5 -7 12 0
10 11 13 0
-8 -11 -14 0
-6 7 -14 0
-3 9 12 0
8 -9 12 0
3 4 11 0
5 -6 -14 0
-2 3 4 0
1 11 -14 0
8 -10 11 0
-2 6 10 0
8 9 14 0
